Generations:
0: ((17, 10, 22, 35, 32, 18, 30, 24, 15, 36, 21, 49, 9, 7, 44, 27, 3, 26, 5, 29, 34, 14, 39, 37, 42, 19, 25, 1, 40, 2, 23, 48, 11, 41, 33, 31, 6, 8, 43, 4, 28, 47, 13, 45, 46, 20, 16, 38, 12, 0), 1175)
1: ((9, 40, 37, 0, 32, 48, 41, 11, 14, 15, 44, 28, 2, 19, 49, 46, 20, 30, 27, 36, 23, 22, 34, 35, 10, 29, 6, 33, 38, 31, 5, 4, 16, 12, 26, 45, 8, 1, 24, 3, 17, 25, 13, 39, 42, 43, 7, 21, 47, 18), 1159)
2: ((9, 40, 37, 0, 32, 48, 41, 11, 14, 15, 44, 28, 2, 19, 49, 46, 20, 30, 27, 36, 23, 22, 34, 35, 10, 29, 6, 33, 38, 31, 5, 4, 16, 12, 26, 45, 8, 1, 24, 3, 17, 25, 13, 39, 42, 43, 7, 21, 47, 18), 1159)
3: ((9, 40, 37, 0, 32, 48, 41, 11, 14, 15, 44, 28, 2, 19, 49, 46, 20, 30, 27, 36, 23, 22, 34, 35, 10, 29, 6, 33, 38, 31, 5, 4, 16, 12, 26, 45, 8, 1, 24, 3, 17, 25, 13, 39, 42, 43, 7, 21, 47, 18), 1159)
4: ((9, 40, 37, 0, 32, 48, 41, 11, 14, 15, 44, 28, 2, 19, 49, 46, 20, 30, 27, 36, 23, 22, 34, 35, 10, 29, 6, 33, 38, 31, 5, 4, 16, 12, 26, 45, 8, 1, 24, 3, 17, 25, 13, 39, 42, 43, 7, 21, 47, 18), 1159)
5: ((9, 40, 37, 0, 32, 48, 41, 11, 14, 15, 44, 28, 2, 19, 49, 46, 20, 30, 27, 36, 23, 22, 34, 35, 10, 29, 6, 33, 38, 31, 5, 4, 16, 12, 26, 45, 8, 1, 24, 3, 17, 25, 13, 39, 42, 43, 7, 21, 47, 18), 1159)
6: ((9, 40, 37, 0, 32, 48, 41, 11, 14, 15, 44, 28, 2, 19, 49, 46, 20, 30, 27, 36, 23, 22, 34, 35, 10, 29, 6, 33, 38, 31, 5, 4, 16, 12, 26, 45, 8, 1, 24, 3, 17, 25, 13, 39, 42, 43, 7, 21, 47, 18), 1159)
7: ((9, 40, 37, 0, 32, 48, 41, 11, 14, 15, 44, 28, 2, 19, 49, 46, 20, 30, 27, 36, 23, 22, 34, 35, 10, 29, 6, 33, 38, 31, 5, 4, 16, 12, 26, 45, 8, 1, 24, 3, 17, 25, 13, 39, 42, 43, 7, 21, 47, 18), 1159)
8: ((24, 3, 30, 39, 32, 15, 44, 29, 40, 16, 20, 31, 37, 19, 41, 12, 13, 0, 26, 42, 2, 38, 47, 7, 18, 28, 22, 49, 43, 33, 6, 17, 46, 36, 45, 35, 8, 27, 4, 23, 1, 21, 5, 11, 25, 48, 34, 10, 14, 9), 1146)
9: ((24, 3, 30, 39, 32, 15, 44, 29, 40, 16, 20, 31, 37, 19, 41, 12, 13, 0, 26, 42, 2, 38, 47, 7, 18, 28, 22, 49, 43, 33, 6, 17, 46, 36, 45, 35, 8, 27, 4, 23, 1, 21, 5, 11, 25, 48, 34, 10, 14, 9), 1146)
10: ((17, 41, 26, 32, 21, 18, 8, 1, 11, 28, 15, 31, 24, 44, 30, 9, 29, 23, 19, 39, 16, 3, 2, 35, 25, 10, 36, 27, 0, 48, 43, 5, 6, 33, 42, 4, 14, 22, 20, 13, 12, 7, 47, 34, 38, 49, 37, 45, 46, 40), 1142)
11: ((17, 41, 26, 32, 21, 18, 8, 1, 11, 28, 15, 31, 24, 44, 30, 9, 29, 23, 19, 39, 16, 3, 2, 35, 25, 10, 36, 27, 0, 48, 43, 5, 6, 33, 42, 4, 14, 22, 20, 13, 12, 7, 47, 34, 38, 49, 37, 45, 46, 40), 1142)
12: ((17, 41, 26, 32, 21, 18, 8, 1, 11, 28, 15, 31, 24, 44, 30, 9, 29, 23, 19, 39, 16, 3, 2, 35, 25, 10, 36, 27, 0, 48, 43, 5, 6, 33, 42, 4, 14, 22, 20, 13, 12, 7, 47, 34, 38, 49, 37, 45, 46, 40), 1142)
13: ((17, 41, 26, 32, 21, 18, 8, 1, 11, 28, 15, 31, 24, 44, 30, 9, 29, 23, 19, 39, 16, 3, 2, 35, 25, 10, 36, 27, 0, 48, 43, 5, 6, 33, 42, 4, 14, 22, 20, 13, 12, 7, 47, 34, 38, 49, 37, 45, 46, 40), 1142)
14: ((17, 41, 26, 32, 21, 18, 8, 1, 11, 28, 15, 31, 24, 44, 30, 9, 29, 23, 19, 39, 16, 3, 2, 35, 25, 10, 36, 27, 0, 48, 43, 5, 6, 33, 42, 4, 14, 22, 20, 13, 12, 7, 47, 34, 38, 49, 37, 45, 46, 40), 1142)
15: ((17, 41, 26, 32, 21, 18, 8, 1, 11, 28, 15, 31, 24, 44, 30, 9, 29, 23, 19, 39, 16, 3, 2, 35, 25, 10, 36, 27, 0, 48, 43, 5, 6, 33, 42, 4, 14, 22, 20, 13, 12, 7, 47, 34, 38, 49, 37, 45, 46, 40), 1142)
16: ((17, 41, 26, 32, 21, 18, 8, 1, 11, 28, 15, 31, 24, 44, 30, 9, 29, 23, 19, 39, 16, 3, 2, 35, 25, 10, 36, 27, 0, 48, 43, 5, 6, 33, 42, 4, 14, 22, 20, 13, 12, 7, 47, 34, 38, 49, 37, 45, 46, 40), 1142)
17: ((17, 32, 16, 21, 27, 9, 39, 5, 24, 26, 44, 18, 1, 15, 2, 40, 20, 10, 25, 29, 23, 3, 36, 46, 0, 22, 35, 30, 48, 41, 33, 31, 6, 8, 43, 4, 47, 12, 7, 13, 45, 34, 38, 49, 37, 19, 14, 42, 28, 11), 1127)
18: ((17, 32, 16, 21, 27, 9, 39, 5, 24, 26, 44, 18, 1, 15, 2, 40, 20, 10, 25, 29, 23, 3, 36, 46, 0, 22, 35, 30, 48, 41, 33, 31, 6, 8, 43, 4, 47, 12, 7, 13, 45, 34, 38, 49, 37, 19, 14, 42, 28, 11), 1127)
19: ((17, 32, 16, 21, 27, 9, 39, 5, 24, 26, 44, 18, 1, 15, 2, 40, 20, 10, 25, 29, 23, 3, 36, 46, 0, 22, 35, 30, 48, 41, 33, 31, 6, 8, 43, 4, 47, 12, 7, 13, 45, 34, 38, 49, 37, 19, 14, 42, 28, 11), 1127)
20: ((17, 32, 16, 21, 27, 9, 39, 5, 24, 26, 44, 18, 1, 15, 2, 40, 20, 10, 25, 29, 23, 3, 36, 46, 0, 22, 35, 30, 48, 41, 33, 31, 6, 8, 43, 4, 47, 12, 7, 13, 45, 34, 38, 49, 37, 19, 14, 42, 28, 11), 1127)
21: ((17, 32, 16, 21, 27, 9, 39, 5, 24, 26, 44, 18, 1, 15, 2, 40, 20, 10, 25, 29, 23, 3, 36, 46, 0, 22, 35, 30, 48, 41, 33, 31, 6, 8, 43, 4, 47, 12, 7, 13, 45, 34, 38, 49, 37, 19, 14, 42, 28, 11), 1127)
22: ((48, 32, 18, 15, 44, 30, 9, 37, 25, 40, 28, 23, 11, 41, 19, 46, 20, 0, 14, 29, 6, 33, 31, 5, 4, 16, 12, 26, 45, 8, 1, 24, 3, 17, 27, 13, 7, 34, 38, 49, 39, 42, 43, 21, 47, 10, 22, 35, 36, 2), 1116)
23: ((48, 32, 18, 15, 44, 30, 9, 37, 25, 40, 28, 23, 11, 41, 19, 46, 20, 0, 14, 29, 6, 33, 31, 5, 4, 16, 12, 26, 45, 8, 1, 24, 3, 17, 27, 13, 7, 34, 38, 49, 39, 42, 43, 21, 47, 10, 22, 35, 36, 2), 1116)
24: ((48, 32, 18, 15, 44, 30, 9, 37, 25, 40, 28, 23, 11, 41, 19, 46, 20, 0, 14, 29, 6, 33, 31, 5, 4, 16, 12, 26, 45, 8, 1, 24, 3, 17, 27, 13, 7, 34, 38, 49, 39, 42, 43, 21, 47, 10, 22, 35, 36, 2), 1116)
25: ((48, 32, 18, 15, 44, 30, 9, 37, 25, 40, 28, 23, 11, 41, 19, 46, 20, 0, 14, 29, 6, 33, 31, 5, 4, 16, 12, 26, 45, 8, 1, 24, 3, 17, 27, 13, 7, 34, 38, 49, 39, 42, 43, 21, 47, 10, 22, 35, 36, 2), 1116)
26: ((48, 32, 18, 15, 44, 30, 9, 37, 25, 40, 28, 23, 11, 41, 19, 46, 20, 0, 14, 29, 6, 33, 31, 5, 4, 16, 12, 26, 45, 8, 1, 24, 3, 17, 27, 13, 7, 34, 38, 49, 39, 42, 43, 21, 47, 10, 22, 35, 36, 2), 1116)
27: ((48, 32, 18, 15, 44, 30, 9, 37, 25, 40, 28, 23, 11, 41, 19, 46, 20, 0, 14, 29, 6, 33, 31, 5, 4, 16, 12, 26, 45, 8, 1, 24, 3, 17, 27, 13, 7, 34, 38, 49, 39, 42, 43, 21, 47, 10, 22, 35, 36, 2), 1116)
28: ((48, 32, 18, 15, 44, 30, 9, 37, 25, 40, 28, 23, 11, 41, 19, 46, 20, 0, 14, 29, 6, 33, 31, 5, 4, 16, 12, 26, 45, 8, 1, 24, 3, 17, 27, 13, 7, 34, 38, 49, 39, 42, 43, 21, 47, 10, 22, 35, 36, 2), 1116)
29: ((48, 32, 18, 15, 44, 30, 9, 37, 25, 40, 28, 23, 11, 41, 19, 46, 20, 0, 14, 29, 6, 33, 31, 5, 4, 16, 12, 26, 45, 8, 1, 24, 3, 17, 27, 13, 7, 34, 38, 49, 39, 42, 43, 21, 47, 10, 22, 35, 36, 2), 1116)
30: ((48, 32, 18, 15, 44, 30, 9, 37, 25, 40, 28, 23, 11, 41, 19, 46, 20, 0, 14, 29, 6, 33, 31, 5, 4, 16, 12, 26, 45, 8, 1, 24, 3, 17, 27, 13, 7, 34, 38, 49, 39, 42, 43, 21, 47, 10, 22, 35, 36, 2), 1116)
31: ((48, 32, 18, 15, 44, 30, 9, 37, 25, 40, 28, 23, 11, 41, 19, 46, 20, 0, 14, 29, 6, 33, 31, 5, 4, 16, 12, 26, 45, 8, 1, 24, 3, 17, 27, 13, 7, 34, 38, 49, 39, 42, 43, 21, 47, 10, 22, 35, 36, 2), 1116)
32: ((48, 32, 18, 15, 44, 30, 9, 37, 25, 40, 28, 23, 11, 41, 19, 46, 20, 0, 14, 29, 6, 33, 31, 5, 4, 16, 12, 26, 45, 8, 1, 24, 3, 17, 27, 13, 7, 34, 38, 49, 39, 42, 43, 21, 47, 10, 22, 35, 36, 2), 1116)
33: ((48, 32, 18, 15, 44, 30, 9, 37, 25, 40, 28, 23, 11, 41, 19, 46, 20, 0, 14, 29, 6, 33, 31, 5, 4, 16, 12, 26, 45, 8, 1, 24, 3, 17, 27, 13, 7, 34, 38, 49, 39, 42, 43, 21, 47, 10, 22, 35, 36, 2), 1116)
34: ((48, 32, 18, 15, 44, 30, 9, 37, 25, 40, 28, 23, 11, 41, 19, 46, 20, 0, 14, 29, 6, 33, 31, 4, 5, 16, 12, 26, 45, 8, 1, 24, 3, 17, 27, 13, 7, 34, 38, 49, 39, 42, 43, 21, 47, 10, 22, 35, 36, 2), 1115)
35: ((48, 32, 18, 15, 44, 30, 9, 37, 25, 40, 28, 23, 11, 41, 19, 46, 20, 0, 14, 29, 6, 33, 31, 4, 5, 16, 12, 26, 45, 8, 1, 24, 3, 17, 27, 13, 7, 34, 38, 49, 39, 42, 43, 21, 47, 10, 22, 35, 36, 2), 1115)
36: ((48, 32, 18, 15, 44, 30, 9, 37, 25, 40, 28, 23, 11, 41, 19, 46, 20, 0, 14, 29, 6, 33, 31, 4, 5, 16, 12, 26, 45, 8, 1, 24, 3, 17, 27, 13, 7, 34, 38, 49, 39, 42, 43, 21, 47, 10, 22, 35, 36, 2), 1115)
37: ((48, 32, 18, 15, 44, 30, 9, 37, 25, 40, 28, 23, 11, 41, 19, 46, 20, 0, 14, 29, 6, 33, 31, 4, 5, 16, 12, 26, 45, 8, 1, 24, 3, 17, 27, 13, 7, 34, 38, 49, 39, 42, 43, 21, 47, 10, 22, 35, 36, 2), 1115)
38: ((48, 32, 18, 15, 44, 30, 9, 37, 25, 40, 28, 23, 11, 41, 19, 46, 20, 0, 14, 29, 6, 33, 31, 4, 5, 16, 12, 26, 45, 8, 1, 24, 3, 17, 27, 13, 7, 34, 38, 49, 39, 42, 43, 21, 47, 10, 22, 35, 36, 2), 1115)
39: ((48, 32, 18, 15, 44, 30, 9, 37, 25, 40, 28, 23, 11, 41, 19, 46, 20, 0, 14, 29, 6, 33, 31, 4, 5, 16, 12, 26, 45, 8, 1, 24, 3, 17, 27, 13, 7, 34, 38, 49, 39, 42, 43, 21, 47, 10, 22, 35, 36, 2), 1115)
40: ((48, 32, 18, 15, 44, 30, 9, 37, 25, 40, 28, 23, 11, 41, 19, 46, 20, 0, 14, 29, 6, 33, 31, 4, 5, 16, 12, 26, 45, 8, 1, 24, 3, 17, 27, 13, 7, 34, 38, 49, 39, 42, 43, 21, 47, 10, 22, 35, 36, 2), 1115)
41: ((48, 32, 18, 15, 44, 30, 9, 25, 40, 28, 23, 11, 41, 19, 29, 6, 33, 31, 4, 5, 26, 8, 1, 24, 3, 17, 27, 7, 34, 49, 39, 43, 21, 47, 13, 46, 20, 16, 38, 12, 0, 42, 14, 37, 45, 10, 22, 35, 36, 2), 1107)
42: ((48, 32, 18, 15, 44, 30, 9, 25, 40, 28, 23, 11, 41, 19, 29, 6, 33, 31, 4, 5, 26, 8, 1, 24, 3, 17, 27, 7, 34, 49, 39, 43, 21, 47, 13, 46, 20, 16, 38, 12, 0, 42, 14, 37, 45, 10, 22, 35, 36, 2), 1107)
43: ((48, 32, 18, 15, 44, 30, 9, 25, 40, 28, 23, 11, 41, 19, 29, 6, 33, 31, 4, 5, 26, 8, 1, 24, 3, 17, 27, 7, 34, 49, 39, 43, 21, 47, 13, 46, 20, 16, 38, 12, 0, 42, 14, 37, 45, 10, 22, 35, 36, 2), 1107)
44: ((48, 32, 18, 15, 44, 30, 9, 25, 40, 28, 23, 11, 41, 19, 29, 6, 33, 31, 4, 5, 26, 8, 1, 24, 3, 17, 27, 7, 34, 49, 39, 43, 21, 47, 13, 46, 20, 16, 38, 12, 0, 42, 14, 37, 45, 10, 22, 35, 36, 2), 1107)
45: ((48, 32, 18, 15, 44, 30, 9, 25, 40, 28, 23, 11, 41, 19, 29, 6, 33, 31, 4, 5, 26, 8, 1, 24, 3, 17, 27, 7, 34, 49, 39, 43, 21, 47, 13, 46, 20, 16, 38, 12, 0, 42, 14, 37, 45, 10, 22, 35, 36, 2), 1107)
46: ((48, 32, 18, 15, 44, 30, 9, 25, 40, 28, 23, 11, 41, 19, 29, 6, 33, 31, 4, 5, 26, 8, 1, 24, 3, 17, 27, 7, 34, 49, 39, 43, 21, 47, 13, 46, 20, 16, 38, 12, 0, 42, 14, 37, 45, 10, 22, 35, 36, 2), 1107)
47: ((48, 32, 18, 15, 44, 30, 9, 25, 40, 28, 23, 11, 41, 19, 29, 6, 33, 31, 4, 5, 26, 8, 1, 24, 3, 17, 27, 7, 34, 49, 39, 43, 21, 47, 13, 46, 20, 16, 38, 12, 0, 42, 14, 37, 45, 10, 22, 35, 36, 2), 1107)
48: ((48, 32, 18, 15, 44, 30, 9, 25, 40, 28, 23, 11, 41, 19, 29, 6, 33, 31, 4, 5, 26, 8, 1, 24, 3, 17, 27, 7, 34, 49, 39, 43, 21, 47, 13, 46, 20, 16, 38, 12, 0, 42, 14, 37, 45, 10, 22, 35, 36, 2), 1107)
49: ((48, 32, 18, 15, 44, 30, 9, 25, 40, 28, 23, 11, 41, 19, 29, 6, 33, 31, 4, 5, 26, 8, 1, 24, 3, 17, 27, 7, 34, 49, 39, 43, 21, 47, 13, 46, 20, 16, 38, 12, 0, 42, 14, 37, 45, 10, 22, 35, 36, 2), 1107)
50: ((48, 32, 18, 15, 44, 30, 9, 25, 40, 28, 23, 11, 41, 19, 29, 6, 33, 31, 4, 5, 26, 8, 1, 24, 3, 17, 27, 7, 34, 49, 39, 43, 21, 47, 13, 46, 20, 16, 38, 12, 0, 42, 14, 37, 45, 10, 22, 35, 36, 2), 1107)
51: ((48, 32, 18, 15, 44, 30, 9, 25, 40, 28, 23, 11, 41, 19, 29, 6, 33, 31, 4, 5, 26, 8, 1, 24, 3, 17, 27, 7, 34, 49, 39, 43, 21, 47, 13, 46, 20, 16, 38, 12, 0, 42, 14, 37, 45, 10, 22, 35, 36, 2), 1107)
52: ((48, 32, 18, 15, 44, 30, 9, 25, 40, 28, 23, 11, 41, 19, 29, 6, 33, 31, 4, 5, 26, 8, 1, 24, 3, 17, 27, 7, 34, 49, 39, 43, 21, 47, 13, 46, 20, 16, 38, 12, 0, 42, 14, 37, 45, 10, 22, 35, 36, 2), 1107)
53: ((48, 32, 18, 15, 44, 30, 9, 25, 40, 28, 23, 11, 41, 19, 29, 6, 33, 31, 4, 5, 26, 8, 1, 24, 3, 17, 27, 7, 34, 49, 39, 43, 21, 47, 13, 46, 20, 16, 38, 12, 0, 42, 14, 37, 45, 10, 22, 35, 36, 2), 1107)
54: ((48, 32, 18, 15, 44, 30, 9, 25, 40, 28, 23, 11, 41, 19, 29, 6, 33, 31, 4, 5, 26, 8, 1, 24, 3, 17, 27, 7, 34, 49, 39, 43, 21, 47, 13, 46, 20, 16, 38, 12, 0, 42, 14, 37, 45, 10, 22, 35, 36, 2), 1107)
55: ((48, 27, 32, 21, 18, 15, 44, 29, 31, 1, 40, 28, 23, 11, 41, 19, 8, 43, 33, 6, 4, 47, 46, 20, 12, 0, 24, 3, 17, 25, 13, 7, 49, 34, 26, 38, 42, 14, 35, 30, 9, 39, 10, 16, 37, 45, 2, 36, 5, 22), 1107)
56: ((48, 27, 32, 21, 18, 15, 44, 29, 31, 1, 40, 28, 23, 11, 41, 19, 8, 43, 33, 6, 4, 47, 46, 20, 12, 0, 24, 3, 17, 25, 13, 7, 49, 34, 26, 38, 42, 14, 35, 30, 9, 39, 10, 16, 37, 45, 2, 36, 5, 22), 1107)
57: ((48, 27, 32, 21, 18, 15, 44, 29, 31, 1, 40, 28, 23, 11, 41, 19, 8, 43, 33, 6, 4, 47, 46, 20, 12, 0, 24, 3, 17, 25, 13, 7, 49, 34, 26, 38, 42, 14, 35, 30, 9, 39, 10, 16, 37, 45, 2, 36, 5, 22), 1107)
58: ((48, 27, 32, 21, 18, 15, 44, 29, 31, 1, 40, 28, 23, 11, 41, 19, 8, 43, 33, 6, 4, 47, 46, 20, 12, 0, 24, 3, 17, 25, 13, 7, 49, 34, 26, 38, 42, 14, 35, 30, 9, 39, 10, 16, 37, 45, 2, 36, 5, 22), 1107)
59: ((48, 27, 32, 21, 18, 15, 44, 29, 31, 1, 40, 28, 23, 11, 41, 19, 8, 43, 33, 6, 4, 47, 46, 20, 12, 0, 24, 3, 17, 25, 13, 7, 49, 34, 26, 38, 42, 14, 35, 30, 9, 39, 10, 16, 37, 45, 2, 36, 5, 22), 1107)
60: ((48, 27, 32, 21, 18, 15, 44, 29, 31, 1, 40, 28, 23, 11, 41, 19, 8, 43, 33, 6, 4, 47, 46, 20, 12, 0, 24, 3, 17, 25, 13, 7, 49, 34, 26, 38, 42, 14, 35, 30, 9, 39, 10, 16, 37, 45, 2, 36, 5, 22), 1107)
61: ((48, 27, 32, 21, 18, 15, 44, 29, 31, 1, 40, 28, 23, 11, 41, 19, 8, 43, 33, 6, 4, 47, 46, 20, 12, 0, 24, 3, 17, 25, 13, 7, 49, 34, 26, 38, 42, 14, 35, 30, 9, 39, 10, 16, 37, 45, 2, 36, 5, 22), 1107)
62: ((48, 27, 32, 21, 18, 15, 44, 29, 31, 1, 40, 28, 23, 11, 41, 19, 8, 43, 33, 6, 4, 47, 46, 20, 12, 0, 24, 3, 17, 25, 13, 7, 49, 34, 26, 38, 42, 14, 35, 30, 9, 39, 10, 16, 37, 45, 2, 36, 5, 22), 1107)
63: ((48, 27, 32, 21, 18, 15, 44, 29, 31, 1, 40, 28, 23, 11, 41, 19, 8, 43, 33, 6, 4, 47, 46, 20, 12, 0, 24, 3, 17, 25, 13, 7, 49, 34, 26, 38, 42, 14, 35, 30, 9, 39, 10, 16, 37, 45, 2, 36, 5, 22), 1107)
64: ((48, 27, 32, 21, 18, 15, 44, 29, 31, 1, 40, 28, 23, 11, 41, 19, 8, 43, 33, 6, 4, 47, 46, 20, 12, 0, 24, 3, 17, 25, 13, 7, 49, 34, 26, 38, 42, 14, 35, 30, 9, 39, 10, 16, 37, 45, 2, 36, 5, 22), 1107)
65: ((48, 27, 32, 21, 18, 15, 44, 29, 31, 1, 40, 28, 23, 11, 41, 19, 8, 43, 33, 6, 4, 47, 46, 20, 12, 0, 24, 3, 17, 25, 13, 7, 49, 34, 26, 38, 42, 14, 35, 30, 9, 39, 10, 16, 37, 45, 2, 36, 5, 22), 1107)
66: ((48, 27, 32, 21, 18, 15, 44, 29, 31, 1, 40, 28, 23, 11, 41, 19, 8, 43, 33, 6, 4, 47, 46, 20, 12, 0, 24, 3, 17, 25, 13, 7, 49, 34, 26, 38, 42, 14, 35, 30, 9, 39, 10, 16, 37, 45, 2, 36, 5, 22), 1107)
67: ((48, 27, 32, 21, 18, 15, 44, 29, 31, 1, 40, 28, 23, 11, 41, 19, 8, 43, 33, 6, 4, 47, 46, 20, 12, 0, 24, 3, 17, 25, 13, 7, 49, 34, 26, 38, 42, 14, 35, 30, 9, 39, 10, 16, 37, 45, 2, 36, 5, 22), 1107)
68: ((48, 27, 32, 21, 18, 15, 44, 29, 31, 1, 40, 28, 23, 11, 41, 19, 8, 43, 33, 6, 4, 47, 46, 20, 12, 0, 24, 3, 17, 25, 13, 7, 49, 34, 26, 38, 42, 14, 35, 30, 9, 39, 10, 16, 37, 45, 2, 36, 5, 22), 1107)
69: ((48, 27, 32, 21, 18, 15, 44, 29, 31, 1, 40, 28, 23, 11, 41, 19, 8, 43, 33, 6, 4, 47, 46, 20, 12, 0, 24, 3, 17, 25, 13, 7, 49, 34, 26, 38, 42, 14, 35, 30, 9, 39, 10, 16, 37, 45, 2, 36, 5, 22), 1107)
70: ((48, 27, 32, 21, 18, 15, 44, 29, 31, 1, 40, 28, 23, 11, 41, 19, 8, 43, 33, 6, 4, 47, 46, 20, 12, 0, 24, 3, 17, 25, 13, 7, 49, 34, 26, 38, 42, 14, 35, 30, 9, 39, 10, 16, 37, 45, 2, 36, 5, 22), 1107)
71: ((48, 27, 32, 21, 18, 15, 44, 29, 31, 1, 40, 28, 23, 11, 41, 19, 8, 43, 33, 6, 4, 47, 46, 20, 12, 0, 24, 3, 17, 25, 13, 7, 49, 34, 26, 38, 42, 14, 35, 30, 9, 39, 10, 16, 37, 45, 2, 36, 5, 22), 1107)
72: ((48, 27, 32, 21, 18, 15, 44, 29, 31, 1, 40, 28, 23, 11, 41, 19, 8, 43, 33, 6, 4, 47, 46, 20, 12, 0, 24, 3, 17, 25, 13, 7, 49, 34, 26, 38, 42, 14, 35, 30, 9, 39, 10, 16, 37, 45, 2, 36, 5, 22), 1107)
73: ((48, 27, 32, 21, 18, 15, 44, 29, 31, 1, 40, 28, 23, 11, 41, 19, 8, 43, 33, 6, 4, 47, 46, 20, 12, 0, 24, 3, 17, 25, 13, 7, 49, 34, 26, 38, 42, 14, 35, 30, 9, 39, 10, 16, 37, 45, 2, 36, 5, 22), 1107)
74: ((48, 27, 32, 21, 18, 15, 44, 29, 31, 1, 40, 28, 23, 11, 41, 19, 8, 43, 33, 6, 4, 47, 46, 20, 12, 0, 24, 3, 17, 25, 13, 7, 49, 34, 26, 38, 42, 14, 35, 30, 9, 39, 10, 16, 37, 45, 2, 36, 5, 22), 1107)
75: ((48, 27, 32, 21, 18, 15, 44, 29, 31, 1, 40, 28, 23, 11, 41, 19, 8, 43, 33, 6, 4, 47, 46, 20, 12, 0, 24, 3, 17, 25, 13, 7, 49, 34, 26, 38, 42, 14, 35, 30, 9, 39, 10, 16, 37, 45, 2, 36, 5, 22), 1107)
76: ((48, 27, 32, 21, 18, 15, 44, 29, 31, 1, 40, 28, 23, 11, 41, 19, 8, 43, 33, 6, 4, 47, 46, 20, 12, 0, 24, 3, 17, 25, 13, 7, 49, 34, 26, 38, 42, 14, 35, 30, 9, 39, 10, 16, 37, 45, 2, 36, 5, 22), 1107)
77: ((48, 27, 32, 21, 18, 15, 44, 29, 31, 1, 40, 28, 23, 11, 41, 19, 8, 43, 33, 6, 4, 47, 46, 20, 12, 0, 24, 3, 17, 25, 13, 7, 49, 34, 26, 38, 42, 14, 35, 30, 9, 39, 10, 16, 37, 45, 2, 36, 5, 22), 1107)
78: ((48, 27, 32, 21, 18, 15, 44, 29, 31, 1, 40, 28, 23, 11, 41, 19, 8, 43, 33, 6, 4, 47, 46, 20, 12, 0, 24, 3, 17, 25, 13, 7, 49, 34, 26, 38, 42, 14, 35, 30, 9, 39, 10, 16, 37, 45, 2, 36, 5, 22), 1107)
79: ((48, 27, 32, 21, 18, 15, 44, 29, 31, 1, 40, 28, 23, 11, 41, 19, 8, 43, 33, 6, 4, 47, 46, 20, 12, 0, 24, 3, 17, 25, 13, 7, 49, 34, 26, 38, 42, 14, 35, 30, 9, 39, 10, 16, 37, 45, 2, 36, 5, 22), 1107)
80: ((48, 27, 32, 21, 18, 15, 44, 29, 31, 1, 40, 28, 23, 11, 41, 19, 8, 43, 33, 6, 4, 47, 46, 20, 12, 0, 24, 3, 17, 25, 13, 7, 49, 34, 26, 38, 42, 14, 35, 30, 9, 39, 10, 16, 37, 45, 2, 36, 5, 22), 1107)
81: ((48, 27, 32, 21, 18, 15, 44, 29, 31, 1, 40, 28, 23, 11, 41, 19, 8, 43, 33, 6, 4, 47, 46, 20, 12, 0, 24, 3, 17, 25, 13, 7, 49, 34, 26, 38, 42, 14, 35, 30, 9, 39, 10, 16, 37, 45, 2, 36, 5, 22), 1107)
82: ((48, 27, 32, 21, 18, 15, 44, 29, 31, 1, 40, 28, 23, 11, 41, 19, 8, 43, 33, 6, 4, 47, 46, 20, 12, 0, 24, 3, 17, 25, 13, 7, 49, 34, 26, 38, 42, 14, 35, 30, 9, 39, 10, 16, 37, 45, 2, 36, 5, 22), 1107)
83: ((48, 27, 32, 21, 18, 15, 44, 29, 31, 1, 40, 28, 23, 11, 41, 19, 8, 43, 33, 6, 4, 47, 46, 20, 12, 0, 24, 3, 17, 25, 13, 7, 49, 34, 26, 38, 42, 14, 35, 30, 9, 39, 10, 16, 37, 45, 2, 36, 5, 22), 1107)
84: ((48, 27, 32, 21, 18, 15, 44, 29, 31, 1, 40, 28, 23, 11, 41, 19, 8, 43, 33, 6, 4, 47, 46, 20, 12, 0, 24, 3, 17, 25, 13, 7, 49, 34, 26, 38, 42, 14, 35, 30, 9, 39, 10, 16, 37, 45, 2, 36, 5, 22), 1107)
85: ((48, 27, 32, 21, 18, 15, 44, 29, 31, 1, 40, 28, 23, 11, 41, 19, 8, 43, 33, 6, 4, 47, 46, 20, 12, 0, 24, 3, 17, 25, 13, 7, 49, 34, 26, 38, 42, 14, 35, 30, 9, 39, 10, 16, 37, 45, 2, 36, 5, 22), 1107)
86: ((48, 27, 32, 21, 18, 15, 44, 29, 31, 1, 40, 28, 23, 11, 41, 19, 8, 43, 33, 6, 4, 47, 46, 20, 12, 0, 24, 3, 17, 25, 13, 7, 49, 34, 26, 38, 42, 14, 35, 30, 9, 39, 10, 16, 37, 45, 2, 36, 5, 22), 1107)
87: ((48, 27, 32, 21, 18, 15, 44, 29, 31, 1, 40, 28, 23, 11, 41, 19, 8, 43, 33, 6, 4, 47, 46, 20, 12, 0, 24, 3, 17, 25, 13, 7, 49, 34, 26, 38, 42, 14, 35, 30, 9, 39, 10, 16, 37, 45, 2, 36, 5, 22), 1107)
88: ((48, 27, 32, 21, 18, 15, 44, 29, 31, 1, 40, 28, 23, 11, 41, 19, 8, 43, 33, 6, 4, 47, 46, 20, 12, 0, 24, 3, 17, 25, 13, 7, 49, 34, 26, 38, 42, 14, 35, 30, 9, 39, 10, 16, 37, 45, 2, 36, 5, 22), 1107)
89: ((48, 27, 32, 21, 18, 15, 44, 29, 31, 1, 40, 28, 23, 11, 41, 19, 8, 43, 33, 6, 4, 47, 46, 20, 12, 0, 24, 3, 17, 25, 13, 7, 49, 34, 26, 38, 42, 14, 35, 30, 9, 39, 10, 16, 37, 45, 2, 36, 5, 22), 1107)
90: ((48, 27, 32, 21, 18, 15, 44, 29, 31, 1, 40, 28, 23, 11, 41, 19, 8, 43, 33, 6, 4, 47, 46, 20, 12, 0, 24, 3, 17, 25, 13, 7, 49, 34, 26, 38, 42, 14, 35, 30, 9, 39, 10, 16, 37, 45, 2, 36, 5, 22), 1107)
91: ((48, 27, 32, 21, 18, 15, 44, 29, 31, 1, 40, 28, 23, 11, 41, 19, 8, 43, 33, 6, 4, 47, 46, 20, 12, 0, 24, 3, 17, 25, 13, 7, 49, 34, 26, 38, 42, 14, 35, 30, 9, 39, 10, 16, 37, 45, 2, 36, 5, 22), 1107)
92: ((48, 27, 32, 21, 18, 15, 44, 29, 31, 1, 40, 28, 23, 11, 41, 19, 8, 43, 33, 6, 4, 47, 46, 20, 12, 0, 24, 3, 17, 25, 13, 7, 49, 34, 26, 38, 42, 14, 35, 30, 9, 39, 10, 16, 37, 45, 2, 36, 5, 22), 1107)
93: ((48, 27, 32, 21, 18, 15, 44, 29, 31, 1, 40, 28, 23, 11, 41, 19, 8, 43, 33, 6, 4, 47, 46, 20, 12, 0, 24, 3, 17, 25, 13, 7, 49, 34, 26, 38, 42, 14, 35, 30, 9, 39, 10, 16, 37, 45, 2, 36, 5, 22), 1107)
94: ((48, 27, 32, 21, 18, 15, 44, 29, 31, 1, 40, 28, 23, 11, 41, 19, 8, 43, 33, 6, 4, 47, 46, 20, 12, 0, 24, 3, 17, 25, 13, 7, 49, 34, 26, 38, 42, 14, 35, 30, 9, 39, 10, 16, 37, 45, 2, 36, 5, 22), 1107)
95: ((48, 27, 32, 21, 18, 15, 44, 29, 31, 1, 40, 28, 23, 11, 41, 19, 8, 43, 33, 6, 4, 47, 46, 20, 12, 0, 24, 3, 17, 25, 13, 7, 49, 34, 26, 38, 42, 14, 35, 30, 9, 39, 10, 16, 37, 45, 2, 36, 5, 22), 1107)
Best: ((48, 32, 18, 15, 44, 30, 9, 25, 40, 28, 23, 11, 41, 19, 29, 6, 33, 31, 4, 5, 26, 8, 1, 24, 3, 17, 27, 7, 34, 49, 39, 43, 21, 47, 13, 46, 20, 16, 38, 12, 0, 42, 14, 37, 45, 10, 22, 35, 36, 2), 1107)
Runtime: 236.4924179 s